50
    22     3    84    69     7    31    35    28    39     8    44    80     7    18    44    14    13    83    35    12    78    68    81    46    37    78    14    79    40    57    29    63    55    94    88    44    64    12    19    54    64    81    14    20    68     9    33    56     6    42
     1     7     4     4     7     2     8     6     4     5    10     6     1     8     2     7     2     7     8     3     5     8    10     4     6     2     1     5     2     1     2     2     6     7     6     5     6     7     2     3     4    10     4     2     9     7     1     4    10     8
   212     0    85   206     0    13    91     0     0     0    34    60   112    43     0     0     0     9     0   136     0   119   115   114     0     0   208    72     0     0     0     0     0   120   204     0     0     0     3     0   181     0    63    52     0   148     0    28     0     0
